c "random instance"
p edges 150 3336
e 1 5
e 1 11
e 1 14
e 1 16
e 1 19
e 1 20
e 1 23
e 1 33
e 1 35
e 1 39
e 1 44
e 1 52
e 1 55
e 1 58
e 1 60
e 1 65
e 1 68
e 1 74
e 1 79
e 1 89
e 1 91
e 1 93
e 1 99
e 1 100
e 1 107
e 1 110
e 1 111
e 1 114
e 1 119
e 1 120
e 1 121
e 1 124
e 1 132
e 1 141
e 1 145
e 1 146
e 2 6
e 2 10
e 2 13
e 2 20
e 2 21
e 2 25
e 2 27
e 2 28
e 2 29
e 2 30
e 2 31
e 2 33
e 2 34
e 2 35
e 2 41
e 2 45
e 2 46
e 2 47
e 2 48
e 2 53
e 2 54
e 2 59
e 2 62
e 2 70
e 2 71
e 2 81
e 2 86
e 2 87
e 2 92
e 2 95
e 2 99
e 2 101
e 2 105
e 2 106
e 2 113
e 2 114
e 2 117
e 2 123
e 2 128
e 2 131
e 2 133
e 2 136
e 2 139
e 2 143
e 3 6
e 3 8
e 3 10
e 3 13
e 3 14
e 3 17
e 3 18
e 3 22
e 3 34
e 3 37
e 3 42
e 3 44
e 3 50
e 3 53
e 3 58
e 3 70
e 3 71
e 3 77
e 3 81
e 3 83
e 3 85
e 3 89
e 3 90
e 3 91
e 3 92
e 3 100
e 3 104
e 3 111
e 3 117
e 3 119
e 3 122
e 3 124
e 3 135
e 3 144
e 3 145
e 3 146
e 4 9
e 4 11
e 4 13
e 4 18
e 4 19
e 4 20
e 4 23
e 4 25
e 4 30
e 4 31
e 4 33
e 4 40
e 4 49
e 4 51
e 4 52
e 4 53
e 4 58
e 4 59
e 4 64
e 4 66
e 4 72
e 4 76
e 4 79
e 4 85
e 4 87
e 4 89
e 4 92
e 4 96
e 4 100
e 4 102
e 4 105
e 4 111
e 4 116
e 4 119
e 4 121
e 4 124
e 4 127
e 4 128
e 4 135
e 4 137
e 4 142
e 4 143
e 4 149
e 5 9
e 5 13
e 5 21
e 5 23
e 5 27
e 5 31
e 5 32
e 5 34
e 5 45
e 5 47
e 5 50
e 5 58
e 5 60
e 5 64
e 5 69
e 5 71
e 5 80
e 5 82
e 5 91
e 5 92
e 5 96
e 5 98
e 5 100
e 5 103
e 5 105
e 5 106
e 5 108
e 5 110
e 5 112
e 5 113
e 5 115
e 5 116
e 5 119
e 5 121
e 5 127
e 5 130
e 5 137
e 5 138
e 5 142
e 5 146
e 5 147
e 5 148
e 5 149
e 6 9
e 6 15
e 6 20
e 6 27
e 6 35
e 6 40
e 6 42
e 6 46
e 6 50
e 6 53
e 6 55
e 6 62
e 6 63
e 6 67
e 6 70
e 6 71
e 6 78
e 6 84
e 6 85
e 6 92
e 6 99
e 6 101
e 6 102
e 6 103
e 6 108
e 6 112
e 6 115
e 6 123
e 6 127
e 6 128
e 6 137
e 6 139
e 6 140
e 6 143
e 6 146
e 7 13
e 7 15
e 7 16
e 7 18
e 7 22
e 7 24
e 7 25
e 7 28
e 7 36
e 7 38
e 7 40
e 7 46
e 7 55
e 7 58
e 7 59
e 7 62
e 7 65
e 7 66
e 7 67
e 7 68
e 7 70
e 7 75
e 7 78
e 7 86
e 7 87
e 7 88
e 7 89
e 7 90
e 7 92
e 7 93
e 7 94
e 7 106
e 7 107
e 7 129
e 7 142
e 7 143
e 7 147
e 8 12
e 8 19
e 8 24
e 8 26
e 8 32
e 8 38
e 8 40
e 8 41
e 8 45
e 8 47
e 8 60
e 8 62
e 8 63
e 8 66
e 8 70
e 8 73
e 8 75
e 8 76
e 8 78
e 8 83
e 8 87
e 8 89
e 8 90
e 8 94
e 8 98
e 8 100
e 8 106
e 8 109
e 8 110
e 8 116
e 8 120
e 8 123
e 8 126
e 8 131
e 8 138
e 8 142
e 8 147
e 8 149
e 9 10
e 9 12
e 9 13
e 9 16
e 9 18
e 9 24
e 9 26
e 9 30
e 9 32
e 9 35
e 9 36
e 9 37
e 9 42
e 9 46
e 9 49
e 9 57
e 9 63
e 9 70
e 9 72
e 9 73
e 9 79
e 9 81
e 9 88
e 9 90
e 9 91
e 9 93
e 9 95
e 9 99
e 9 101
e 9 103
e 9 104
e 9 107
e 9 109
e 9 111
e 9 113
e 9 123
e 9 128
e 9 132
e 9 135
e 9 137
e 9 143
e 9 145
e 9 146
e 10 12
e 10 13
e 10 17
e 10 22
e 10 25
e 10 26
e 10 29
e 10 33
e 10 44
e 10 51
e 10 54
e 10 55
e 10 57
e 10 59
e 10 64
e 10 67
e 10 68
e 10 69
e 10 72
e 10 73
e 10 74
e 10 77
e 10 78
e 10 87
e 10 89
e 10 91
e 10 101
e 10 102
e 10 103
e 10 104
e 10 106
e 10 107
e 10 108
e 10 121
e 10 125
e 10 126
e 10 133
e 10 134
e 10 139
e 10 140
e 10 145
e 10 146
e 10 149
e 10 150
e 11 14
e 11 23
e 11 25
e 11 27
e 11 32
e 11 33
e 11 37
e 11 39
e 11 40
e 11 49
e 11 51
e 11 52
e 11 53
e 11 54
e 11 57
e 11 62
e 11 65
e 11 66
e 11 67
e 11 71
e 11 73
e 11 78
e 11 80
e 11 82
e 11 83
e 11 90
e 11 92
e 11 93
e 11 94
e 11 97
e 11 106
e 11 107
e 11 108
e 11 110
e 11 114
e 11 120
e 11 123
e 11 124
e 11 125
e 11 128
e 11 129
e 11 131
e 11 133
e 11 136
e 11 137
e 11 139
e 11 141
e 11 145
e 11 149
e 12 13
e 12 18
e 12 21
e 12 23
e 12 27
e 12 28
e 12 38
e 12 39
e 12 42
e 12 44
e 12 51
e 12 52
e 12 58
e 12 71
e 12 73
e 12 78
e 12 88
e 12 94
e 12 95
e 12 106
e 12 111
e 12 117
e 12 118
e 12 125
e 12 129
e 12 133
e 12 139
e 12 143
e 12 145
e 12 146
e 13 16
e 13 17
e 13 19
e 13 20
e 13 26
e 13 27
e 13 35
e 13 36
e 13 40
e 13 41
e 13 44
e 13 46
e 13 56
e 13 62
e 13 66
e 13 67
e 13 68
e 13 70
e 13 73
e 13 76
e 13 77
e 13 80
e 13 82
e 13 90
e 13 98
e 13 100
e 13 102
e 13 107
e 13 108
e 13 109
e 13 110
e 13 111
e 13 115
e 13 117
e 13 118
e 13 119
e 13 125
e 13 130
e 13 132
e 13 136
e 13 137
e 13 140
e 13 145
e 13 147
e 13 148
e 13 150
e 14 15
e 14 16
e 14 17
e 14 26
e 14 27
e 14 29
e 14 31
e 14 32
e 14 33
e 14 35
e 14 37
e 14 39
e 14 52
e 14 53
e 14 55
e 14 57
e 14 59
e 14 61
e 14 73
e 14 75
e 14 76
e 14 77
e 14 91
e 14 94
e 14 95
e 14 96
e 14 97
e 14 103
e 14 104
e 14 106
e 14 109
e 14 110
e 14 117
e 14 119
e 14 121
e 14 122
e 14 129
e 14 130
e 14 131
e 14 133
e 14 134
e 14 135
e 14 136
e 14 137
e 14 142
e 14 144
e 14 147
e 14 149
e 15 16
e 15 17
e 15 21
e 15 26
e 15 39
e 15 41
e 15 42
e 15 45
e 15 46
e 15 49
e 15 55
e 15 57
e 15 59
e 15 60
e 15 61
e 15 65
e 15 66
e 15 67
e 15 68
e 15 72
e 15 77
e 15 79
e 15 80
e 15 81
e 15 82
e 15 87
e 15 93
e 15 95
e 15 99
e 15 100
e 15 102
e 15 106
e 15 107
e 15 109
e 15 114
e 15 118
e 15 134
e 15 135
e 15 140
e 15 147
e 15 148
e 16 20
e 16 21
e 16 22
e 16 25
e 16 28
e 16 35
e 16 36
e 16 37
e 16 44
e 16 48
e 16 49
e 16 51
e 16 52
e 16 63
e 16 64
e 16 65
e 16 66
e 16 70
e 16 71
e 16 74
e 16 75
e 16 76
e 16 77
e 16 78
e 16 79
e 16 82
e 16 89
e 16 90
e 16 91
e 16 95
e 16 99
e 16 103
e 16 107
e 16 108
e 16 113
e 16 116
e 16 121
e 16 122
e 16 126
e 16 134
e 16 135
e 16 149
e 17 20
e 17 21
e 17 25
e 17 26
e 17 27
e 17 31
e 17 34
e 17 35
e 17 37
e 17 43
e 17 44
e 17 52
e 17 54
e 17 58
e 17 60
e 17 62
e 17 66
e 17 67
e 17 68
e 17 70
e 17 74
e 17 79
e 17 83
e 17 89
e 17 90
e 17 91
e 17 95
e 17 98
e 17 100
e 17 103
e 17 106
e 17 111
e 17 118
e 17 123
e 17 125
e 17 127
e 17 133
e 17 139
e 17 148
e 18 20
e 18 21
e 18 31
e 18 32
e 18 42
e 18 44
e 18 55
e 18 57
e 18 61
e 18 64
e 18 67
e 18 70
e 18 75
e 18 80
e 18 83
e 18 88
e 18 89
e 18 91
e 18 94
e 18 95
e 18 96
e 18 99
e 18 106
e 18 108
e 18 111
e 18 112
e 18 115
e 18 116
e 18 126
e 18 128
e 18 129
e 18 137
e 18 141
e 18 142
e 18 143
e 18 150
e 19 23
e 19 24
e 19 25
e 19 29
e 19 30
e 19 32
e 19 33
e 19 35
e 19 47
e 19 49
e 19 52
e 19 55
e 19 56
e 19 62
e 19 64
e 19 66
e 19 67
e 19 69
e 19 71
e 19 72
e 19 73
e 19 74
e 19 75
e 19 82
e 19 84
e 19 86
e 19 88
e 19 90
e 19 94
e 19 96
e 19 97
e 19 99
e 19 100
e 19 101
e 19 105
e 19 106
e 19 114
e 19 115
e 19 125
e 19 129
e 19 131
e 19 132
e 19 134
e 19 135
e 19 140
e 20 27
e 20 29
e 20 33
e 20 34
e 20 43
e 20 44
e 20 45
e 20 51
e 20 52
e 20 53
e 20 60
e 20 64
e 20 65
e 20 69
e 20 70
e 20 73
e 20 74
e 20 75
e 20 77
e 20 80
e 20 83
e 20 85
e 20 90
e 20 92
e 20 93
e 20 94
e 20 100
e 20 103
e 20 104
e 20 107
e 20 111
e 20 115
e 20 122
e 20 129
e 20 131
e 20 132
e 20 134
e 20 139
e 20 140
e 20 143
e 20 146
e 21 24
e 21 25
e 21 27
e 21 30
e 21 31
e 21 35
e 21 39
e 21 44
e 21 48
e 21 53
e 21 56
e 21 66
e 21 69
e 21 70
e 21 72
e 21 75
e 21 77
e 21 78
e 21 83
e 21 84
e 21 86
e 21 88
e 21 93
e 21 97
e 21 98
e 21 99
e 21 100
e 21 106
e 21 107
e 21 108
e 21 110
e 21 111
e 21 112
e 21 116
e 21 124
e 21 125
e 21 128
e 21 131
e 21 132
e 21 133
e 21 134
e 21 136
e 21 137
e 21 139
e 21 140
e 21 144
e 21 149
e 21 150
e 22 31
e 22 33
e 22 35
e 22 36
e 22 39
e 22 48
e 22 50
e 22 51
e 22 60
e 22 62
e 22 70
e 22 71
e 22 76
e 22 85
e 22 86
e 22 91
e 22 104
e 22 105
e 22 106
e 22 107
e 22 112
e 22 113
e 22 114
e 22 115
e 22 116
e 22 117
e 22 136
e 22 140
e 22 142
e 22 144
e 22 147
e 22 149
e 23 25
e 23 27
e 23 30
e 23 42
e 23 44
e 23 45
e 23 47
e 23 49
e 23 51
e 23 53
e 23 54
e 23 56
e 23 64
e 23 70
e 23 77
e 23 84
e 23 97
e 23 100
e 23 105
e 23 106
e 23 107
e 23 108
e 23 110
e 23 114
e 23 116
e 23 118
e 23 121
e 23 122
e 23 129
e 23 131
e 23 137
e 23 144
e 23 148
e 23 149
e 24 29
e 24 30
e 24 33
e 24 35
e 24 36
e 24 39
e 24 40
e 24 43
e 24 54
e 24 55
e 24 56
e 24 57
e 24 59
e 24 60
e 24 62
e 24 66
e 24 69
e 24 72
e 24 74
e 24 77
e 24 78
e 24 92
e 24 99
e 24 104
e 24 116
e 24 119
e 24 121
e 24 122
e 24 125
e 24 126
e 24 134
e 24 137
e 24 140
e 24 145
e 24 148
e 25 27
e 25 28
e 25 30
e 25 35
e 25 40
e 25 44
e 25 45
e 25 47
e 25 48
e 25 54
e 25 55
e 25 56
e 25 58
e 25 68
e 25 69
e 25 70
e 25 73
e 25 75
e 25 80
e 25 82
e 25 87
e 25 89
e 25 90
e 25 91
e 25 96
e 25 99
e 25 102
e 25 110
e 25 111
e 25 114
e 25 120
e 25 121
e 25 122
e 25 124
e 25 125
e 25 129
e 25 134
e 25 135
e 25 137
e 25 142
e 25 145
e 25 147
e 25 148
e 26 27
e 26 29
e 26 32
e 26 33
e 26 34
e 26 35
e 26 36
e 26 38
e 26 41
e 26 42
e 26 45
e 26 47
e 26 50
e 26 52
e 26 60
e 26 64
e 26 66
e 26 68
e 26 73
e 26 77
e 26 80
e 26 84
e 26 89
e 26 90
e 26 94
e 26 98
e 26 99
e 26 100
e 26 105
e 26 107
e 26 108
e 26 118
e 26 121
e 26 122
e 26 125
e 26 134
e 26 145
e 26 150
e 27 33
e 27 34
e 27 42
e 27 45
e 27 50
e 27 51
e 27 53
e 27 54
e 27 59
e 27 62
e 27 69
e 27 72
e 27 74
e 27 79
e 27 82
e 27 83
e 27 84
e 27 91
e 27 92
e 27 106
e 27 110
e 27 116
e 27 117
e 27 118
e 27 119
e 27 123
e 27 125
e 27 127
e 27 129
e 27 131
e 27 132
e 27 133
e 27 135
e 27 137
e 27 138
e 27 144
e 27 146
e 27 147
e 27 149
e 28 29
e 28 32
e 28 33
e 28 45
e 28 47
e 28 49
e 28 50
e 28 52
e 28 55
e 28 59
e 28 61
e 28 62
e 28 63
e 28 66
e 28 67
e 28 71
e 28 74
e 28 76
e 28 79
e 28 80
e 28 85
e 28 86
e 28 87
e 28 88
e 28 91
e 28 96
e 28 97
e 28 105
e 28 106
e 28 121
e 28 124
e 28 127
e 28 129
e 28 131
e 28 133
e 28 134
e 28 135
e 28 137
e 28 140
e 28 147
e 28 149
e 28 150
e 29 30
e 29 32
e 29 43
e 29 44
e 29 47
e 29 49
e 29 51
e 29 54
e 29 55
e 29 56
e 29 58
e 29 59
e 29 61
e 29 62
e 29 65
e 29 66
e 29 67
e 29 68
e 29 70
e 29 76
e 29 80
e 29 82
e 29 86
e 29 87
e 29 90
e 29 95
e 29 100
e 29 104
e 29 108
e 29 116
e 29 119
e 29 121
e 29 125
e 29 126
e 29 128
e 29 130
e 29 134
e 29 137
e 29 141
e 29 142
e 29 143
e 29 150
e 30 35
e 30 36
e 30 37
e 30 39
e 30 46
e 30 53
e 30 54
e 30 55
e 30 62
e 30 64
e 30 65
e 30 76
e 30 83
e 30 96
e 30 98
e 30 99
e 30 100
e 30 105
e 30 107
e 30 111
e 30 112
e 30 116
e 30 117
e 30 118
e 30 123
e 30 127
e 30 128
e 30 130
e 30 131
e 30 136
e 30 137
e 30 139
e 30 140
e 30 141
e 30 147
e 31 35
e 31 36
e 31 40
e 31 42
e 31 50
e 31 51
e 31 54
e 31 57
e 31 69
e 31 71
e 31 72
e 31 78
e 31 79
e 31 91
e 31 93
e 31 98
e 31 109
e 31 110
e 31 111
e 31 113
e 31 120
e 31 123
e 31 124
e 31 126
e 31 134
e 31 137
e 31 146
e 31 150
e 32 36
e 32 38
e 32 55
e 32 56
e 32 60
e 32 61
e 32 63
e 32 66
e 32 68
e 32 72
e 32 77
e 32 78
e 32 79
e 32 80
e 32 81
e 32 86
e 32 92
e 32 96
e 32 99
e 32 103
e 32 112
e 32 118
e 32 124
e 32 129
e 32 135
e 32 142
e 32 144
e 32 148
e 33 35
e 33 38
e 33 44
e 33 47
e 33 51
e 33 54
e 33 61
e 33 62
e 33 64
e 33 67
e 33 73
e 33 74
e 33 78
e 33 85
e 33 86
e 33 87
e 33 90
e 33 93
e 33 106
e 33 108
e 33 112
e 33 113
e 33 114
e 33 117
e 33 119
e 33 120
e 33 123
e 33 126
e 33 128
e 33 129
e 33 131
e 33 132
e 33 135
e 33 137
e 33 141
e 34 35
e 34 36
e 34 38
e 34 40
e 34 41
e 34 51
e 34 53
e 34 54
e 34 58
e 34 60
e 34 64
e 34 66
e 34 69
e 34 71
e 34 72
e 34 76
e 34 77
e 34 81
e 34 83
e 34 84
e 34 87
e 34 88
e 34 89
e 34 91
e 34 92
e 34 96
e 34 97
e 34 98
e 34 102
e 34 103
e 34 110
e 34 111
e 34 112
e 34 114
e 34 115
e 34 126
e 34 137
e 34 138
e 34 145
e 34 149
e 35 42
e 35 49
e 35 52
e 35 53
e 35 55
e 35 65
e 35 66
e 35 69
e 35 77
e 35 80
e 35 87
e 35 89
e 35 91
e 35 96
e 35 97
e 35 99
e 35 111
e 35 112
e 35 113
e 35 114
e 35 116
e 35 127
e 35 130
e 35 132
e 35 135
e 35 139
e 35 144
e 35 147
e 35 148
e 36 39
e 36 40
e 36 47
e 36 50
e 36 53
e 36 60
e 36 61
e 36 62
e 36 64
e 36 69
e 36 70
e 36 72
e 36 74
e 36 77
e 36 80
e 36 82
e 36 87
e 36 91
e 36 92
e 36 96
e 36 101
e 36 103
e 36 104
e 36 109
e 36 119
e 36 120
e 36 121
e 36 124
e 36 125
e 36 127
e 36 130
e 36 134
e 36 135
e 36 138
e 36 140
e 36 141
e 36 142
e 36 144
e 36 147
e 36 149
e 37 45
e 37 50
e 37 53
e 37 57
e 37 60
e 37 63
e 37 64
e 37 65
e 37 68
e 37 72
e 37 73
e 37 75
e 37 79
e 37 80
e 37 83
e 37 87
e 37 88
e 37 93
e 37 94
e 37 96
e 37 97
e 37 102
e 37 109
e 37 123
e 37 125
e 37 126
e 37 130
e 37 133
e 37 136
e 37 138
e 37 139
e 37 140
e 37 141
e 37 143
e 37 146
e 38 42
e 38 43
e 38 52
e 38 54
e 38 55
e 38 56
e 38 64
e 38 67
e 38 71
e 38 84
e 38 85
e 38 91
e 38 93
e 38 96
e 38 97
e 38 99
e 38 100
e 38 104
e 38 114
e 38 119
e 38 123
e 38 125
e 38 130
e 38 133
e 38 137
e 38 138
e 38 144
e 38 146
e 38 147
e 39 44
e 39 45
e 39 46
e 39 50
e 39 52
e 39 53
e 39 59
e 39 65
e 39 67
e 39 69
e 39 71
e 39 76
e 39 77
e 39 82
e 39 85
e 39 89
e 39 90
e 39 92
e 39 96
e 39 97
e 39 99
e 39 104
e 39 113
e 39 115
e 39 119
e 39 122
e 39 124
e 39 126
e 39 129
e 39 130
e 39 136
e 39 137
e 39 142
e 39 143
e 39 144
e 39 147
e 39 149
e 40 41
e 40 42
e 40 48
e 40 50
e 40 53
e 40 54
e 40 55
e 40 56
e 40 58
e 40 60
e 40 61
e 40 70
e 40 82
e 40 86
e 40 87
e 40 90
e 40 93
e 40 100
e 40 114
e 40 118
e 40 120
e 40 121
e 40 124
e 40 126
e 40 127
e 40 129
e 40 130
e 40 135
e 40 137
e 40 144
e 40 148
e 40 150
e 41 43
e 41 44
e 41 45
e 41 48
e 41 52
e 41 53
e 41 54
e 41 57
e 41 60
e 41 61
e 41 64
e 41 67
e 41 69
e 41 70
e 41 75
e 41 78
e 41 79
e 41 80
e 41 82
e 41 83
e 41 86
e 41 89
e 41 94
e 41 95
e 41 99
e 41 105
e 41 110
e 41 111
e 41 115
e 41 130
e 41 131
e 41 135
e 41 136
e 41 140
e 41 144
e 41 148
e 42 44
e 42 48
e 42 49
e 42 52
e 42 66
e 42 67
e 42 70
e 42 71
e 42 72
e 42 73
e 42 75
e 42 79
e 42 85
e 42 88
e 42 89
e 42 90
e 42 92
e 42 101
e 42 104
e 42 107
e 42 109
e 42 112
e 42 114
e 42 117
e 42 118
e 42 119
e 42 125
e 42 128
e 42 132
e 42 133
e 42 134
e 42 140
e 42 150
e 43 45
e 43 47
e 43 58
e 43 59
e 43 60
e 43 61
e 43 62
e 43 63
e 43 72
e 43 75
e 43 78
e 43 81
e 43 84
e 43 88
e 43 95
e 43 97
e 43 102
e 43 106
e 43 109
e 43 110
e 43 111
e 43 116
e 43 118
e 43 123
e 43 126
e 43 128
e 43 130
e 43 132
e 43 134
e 43 136
e 43 140
e 43 143
e 44 48
e 44 50
e 44 55
e 44 59
e 44 60
e 44 62
e 44 64
e 44 66
e 44 70
e 44 73
e 44 76
e 44 82
e 44 85
e 44 88
e 44 90
e 44 97
e 44 101
e 44 103
e 44 104
e 44 107
e 44 113
e 44 116
e 44 117
e 44 124
e 44 125
e 44 126
e 44 130
e 44 135
e 44 138
e 44 140
e 44 147
e 45 47
e 45 48
e 45 49
e 45 50
e 45 56
e 45 57
e 45 63
e 45 66
e 45 67
e 45 69
e 45 71
e 45 72
e 45 74
e 45 75
e 45 81
e 45 94
e 45 95
e 45 96
e 45 97
e 45 98
e 45 101
e 45 103
e 45 108
e 45 109
e 45 112
e 45 113
e 45 114
e 45 115
e 45 121
e 45 124
e 45 132
e 45 138
e 45 140
e 45 142
e 45 144
e 45 145
e 46 50
e 46 52
e 46 54
e 46 57
e 46 59
e 46 61
e 46 64
e 46 65
e 46 75
e 46 77
e 46 86
e 46 91
e 46 95
e 46 98
e 46 101
e 46 105
e 46 113
e 46 115
e 46 119
e 46 124
e 46 126
e 46 128
e 46 133
e 46 139
e 46 141
e 46 145
e 46 147
e 47 50
e 47 51
e 47 57
e 47 63
e 47 65
e 47 69
e 47 73
e 47 74
e 47 75
e 47 78
e 47 80
e 47 81
e 47 82
e 47 86
e 47 90
e 47 96
e 47 98
e 47 99
e 47 103
e 47 105
e 47 106
e 47 107
e 47 108
e 47 112
e 47 115
e 47 121
e 47 125
e 47 127
e 47 129
e 47 131
e 47 135
e 47 136
e 47 143
e 47 147
e 47 148
e 47 150
e 48 49
e 48 51
e 48 57
e 48 58
e 48 60
e 48 62
e 48 63
e 48 67
e 48 69
e 48 71
e 48 74
e 48 77
e 48 81
e 48 86
e 48 91
e 48 96
e 48 104
e 48 106
e 48 107
e 48 113
e 48 115
e 48 116
e 48 126
e 48 133
e 48 134
e 48 135
e 48 138
e 48 144
e 48 149
e 48 150
e 49 53
e 49 56
e 49 58
e 49 62
e 49 67
e 49 70
e 49 73
e 49 76
e 49 77
e 49 78
e 49 87
e 49 90
e 49 94
e 49 97
e 49 99
e 49 104
e 49 108
e 49 109
e 49 110
e 49 113
e 49 118
e 49 119
e 49 120
e 49 122
e 49 126
e 49 127
e 49 133
e 49 138
e 49 142
e 49 143
e 50 52
e 50 55
e 50 56
e 50 58
e 50 60
e 50 65
e 50 73
e 50 77
e 50 78
e 50 80
e 50 90
e 50 95
e 50 96
e 50 98
e 50 102
e 50 103
e 50 111
e 50 117
e 50 119
e 50 120
e 50 123
e 50 125
e 50 127
e 50 133
e 50 138
e 50 146
e 51 54
e 51 55
e 51 56
e 51 58
e 51 59
e 51 63
e 51 66
e 51 74
e 51 76
e 51 83
e 51 84
e 51 85
e 51 86
e 51 90
e 51 91
e 51 93
e 51 95
e 51 101
e 51 107
e 51 116
e 51 117
e 51 119
e 51 120
e 51 121
e 51 123
e 51 124
e 51 126
e 51 127
e 51 129
e 51 132
e 51 135
e 51 139
e 51 140
e 51 145
e 52 56
e 52 59
e 52 60
e 52 64
e 52 66
e 52 67
e 52 71
e 52 72
e 52 77
e 52 78
e 52 79
e 52 81
e 52 82
e 52 83
e 52 88
e 52 90
e 52 97
e 52 100
e 52 101
e 52 118
e 52 119
e 52 124
e 52 125
e 52 134
e 52 136
e 52 137
e 52 139
e 52 140
e 52 143
e 52 144
e 52 148
e 52 149
e 53 56
e 53 60
e 53 62
e 53 66
e 53 69
e 53 72
e 53 73
e 53 74
e 53 79
e 53 82
e 53 85
e 53 86
e 53 93
e 53 101
e 53 103
e 53 107
e 53 111
e 53 116
e 53 121
e 53 124
e 53 128
e 53 134
e 54 55
e 54 58
e 54 61
e 54 62
e 54 64
e 54 71
e 54 75
e 54 76
e 54 77
e 54 78
e 54 79
e 54 82
e 54 87
e 54 97
e 54 98
e 54 100
e 54 102
e 54 105
e 54 107
e 54 109
e 54 119
e 54 121
e 54 122
e 54 127
e 54 130
e 54 131
e 54 138
e 54 141
e 54 142
e 54 144
e 54 147
e 54 148
e 55 58
e 55 61
e 55 69
e 55 72
e 55 74
e 55 75
e 55 83
e 55 84
e 55 86
e 55 90
e 55 92
e 55 96
e 55 99
e 55 101
e 55 104
e 55 105
e 55 109
e 55 110
e 55 111
e 55 114
e 55 115
e 55 116
e 55 120
e 55 128
e 55 135
e 55 138
e 55 139
e 55 140
e 55 141
e 55 143
e 55 145
e 55 148
e 56 59
e 56 61
e 56 62
e 56 66
e 56 70
e 56 72
e 56 75
e 56 78
e 56 83
e 56 85
e 56 89
e 56 95
e 56 97
e 56 101
e 56 103
e 56 104
e 56 107
e 56 108
e 56 109
e 56 110
e 56 113
e 56 115
e 56 116
e 56 118
e 56 119
e 56 120
e 56 125
e 56 129
e 56 132
e 56 134
e 56 135
e 56 136
e 56 141
e 56 143
e 56 147
e 56 148
e 56 149
e 57 59
e 57 60
e 57 67
e 57 72
e 57 82
e 57 85
e 57 88
e 57 89
e 57 90
e 57 91
e 57 96
e 57 102
e 57 106
e 57 107
e 57 113
e 57 125
e 57 128
e 57 130
e 57 133
e 57 139
e 57 142
e 57 144
e 58 64
e 58 67
e 58 70
e 58 79
e 58 83
e 58 84
e 58 88
e 58 93
e 58 95
e 58 97
e 58 99
e 58 101
e 58 102
e 58 103
e 58 104
e 58 106
e 58 113
e 58 114
e 58 115
e 58 117
e 58 123
e 58 124
e 58 125
e 58 126
e 58 133
e 58 134
e 58 136
e 58 138
e 58 139
e 58 140
e 59 66
e 59 67
e 59 69
e 59 71
e 59 72
e 59 73
e 59 77
e 59 81
e 59 84
e 59 87
e 59 89
e 59 95
e 59 96
e 59 98
e 59 100
e 59 101
e 59 107
e 59 111
e 59 112
e 59 114
e 59 120
e 59 121
e 59 122
e 59 123
e 59 124
e 59 125
e 59 127
e 59 135
e 59 136
e 59 138
e 59 139
e 59 141
e 59 143
e 59 146
e 59 149
e 59 150
e 60 63
e 60 64
e 60 73
e 60 75
e 60 77
e 60 79
e 60 88
e 60 92
e 60 94
e 60 95
e 60 96
e 60 101
e 60 104
e 60 106
e 60 110
e 60 111
e 60 117
e 60 120
e 60 137
e 60 139
e 60 145
e 61 63
e 61 64
e 61 65
e 61 66
e 61 69
e 61 73
e 61 79
e 61 81
e 61 85
e 61 86
e 61 88
e 61 89
e 61 98
e 61 103
e 61 107
e 61 111
e 61 113
e 61 114
e 61 115
e 61 120
e 61 127
e 61 130
e 61 132
e 61 138
e 61 144
e 61 146
e 61 150
e 62 64
e 62 66
e 62 72
e 62 80
e 62 84
e 62 88
e 62 95
e 62 97
e 62 102
e 62 108
e 62 115
e 62 117
e 62 119
e 62 120
e 62 124
e 62 131
e 62 135
e 62 142
e 62 144
e 62 150
e 63 67
e 63 68
e 63 71
e 63 72
e 63 76
e 63 79
e 63 86
e 63 89
e 63 91
e 63 94
e 63 106
e 63 109
e 63 111
e 63 120
e 63 128
e 63 135
e 63 136
e 64 65
e 64 71
e 64 75
e 64 82
e 64 83
e 64 84
e 64 91
e 64 93
e 64 94
e 64 95
e 64 96
e 64 97
e 64 99
e 64 103
e 64 106
e 64 111
e 64 113
e 64 114
e 64 116
e 64 120
e 64 121
e 64 122
e 64 123
e 64 130
e 64 131
e 64 143
e 64 146
e 65 68
e 65 69
e 65 70
e 65 75
e 65 84
e 65 85
e 65 88
e 65 92
e 65 94
e 65 95
e 65 103
e 65 104
e 65 105
e 65 106
e 65 115
e 65 122
e 65 123
e 65 132
e 65 137
e 65 146
e 65 150
e 66 67
e 66 73
e 66 87
e 66 91
e 66 94
e 66 97
e 66 100
e 66 106
e 66 111
e 66 115
e 66 117
e 66 118
e 66 121
e 66 122
e 66 125
e 66 130
e 66 135
e 66 140
e 66 141
e 66 142
e 66 147
e 66 148
e 66 149
e 66 150
e 67 68
e 67 75
e 67 77
e 67 78
e 67 80
e 67 83
e 67 85
e 67 86
e 67 92
e 67 96
e 67 100
e 67 103
e 67 104
e 67 110
e 67 114
e 67 119
e 67 123
e 67 127
e 67 129
e 67 130
e 67 132
e 67 136
e 67 139
e 67 145
e 68 80
e 68 83
e 68 84
e 68 86
e 68 89
e 68 90
e 68 92
e 68 93
e 68 96
e 68 107
e 68 112
e 68 126
e 68 129
e 68 130
e 68 131
e 68 134
e 68 138
e 68 141
e 68 143
e 68 147
e 69 71
e 69 77
e 69 79
e 69 93
e 69 95
e 69 101
e 69 103
e 69 106
e 69 107
e 69 108
e 69 116
e 69 125
e 69 126
e 69 127
e 69 140
e 69 144
e 69 147
e 70 72
e 70 73
e 70 75
e 70 81
e 70 92
e 70 94
e 70 95
e 70 96
e 70 101
e 70 103
e 70 106
e 70 107
e 70 111
e 70 114
e 70 115
e 70 117
e 70 118
e 70 125
e 70 126
e 70 128
e 70 140
e 70 142
e 70 150
e 71 72
e 71 73
e 71 77
e 71 84
e 71 85
e 71 86
e 71 91
e 71 92
e 71 101
e 71 103
e 71 104
e 71 105
e 71 106
e 71 109
e 71 114
e 71 117
e 71 122
e 71 127
e 71 128
e 71 131
e 71 132
e 71 141
e 71 143
e 71 146
e 72 78
e 72 79
e 72 82
e 72 83
e 72 84
e 72 85
e 72 86
e 72 91
e 72 92
e 72 94
e 72 97
e 72 99
e 72 100
e 72 101
e 72 103
e 72 104
e 72 107
e 72 111
e 72 113
e 72 114
e 72 116
e 72 131
e 72 132
e 72 141
e 72 142
e 72 144
e 72 145
e 72 147
e 73 76
e 73 78
e 73 82
e 73 88
e 73 90
e 73 95
e 73 98
e 73 103
e 73 121
e 73 122
e 73 123
e 73 126
e 73 128
e 73 141
e 73 146
e 73 150
e 74 76
e 74 80
e 74 81
e 74 87
e 74 90
e 74 91
e 74 100
e 74 101
e 74 104
e 74 115
e 74 117
e 74 118
e 74 122
e 74 129
e 74 130
e 74 133
e 74 135
e 74 137
e 74 143
e 74 144
e 74 148
e 75 76
e 75 80
e 75 85
e 75 88
e 75 89
e 75 90
e 75 97
e 75 99
e 75 101
e 75 102
e 75 105
e 75 107
e 75 111
e 75 113
e 75 115
e 75 116
e 75 121
e 75 130
e 75 136
e 75 143
e 75 145
e 75 147
e 76 77
e 76 81
e 76 88
e 76 89
e 76 92
e 76 94
e 76 102
e 76 118
e 76 119
e 76 124
e 76 128
e 76 132
e 76 133
e 76 135
e 76 136
e 76 143
e 76 144
e 76 145
e 76 148
e 76 149
e 77 89
e 77 90
e 77 91
e 77 93
e 77 95
e 77 98
e 77 99
e 77 103
e 77 105
e 77 107
e 77 109
e 77 110
e 77 117
e 77 122
e 77 123
e 77 130
e 77 131
e 77 135
e 77 136
e 77 140
e 77 142
e 77 144
e 77 147
e 78 82
e 78 83
e 78 85
e 78 86
e 78 96
e 78 98
e 78 100
e 78 102
e 78 107
e 78 116
e 78 118
e 78 119
e 78 120
e 78 124
e 78 126
e 78 127
e 78 129
e 78 133
e 78 141
e 78 146
e 78 149
e 79 80
e 79 81
e 79 85
e 79 87
e 79 89
e 79 90
e 79 92
e 79 93
e 79 100
e 79 105
e 79 107
e 79 108
e 79 109
e 79 110
e 79 112
e 79 113
e 79 114
e 79 117
e 79 119
e 79 123
e 79 127
e 79 133
e 79 136
e 79 138
e 79 139
e 79 140
e 79 142
e 79 143
e 79 145
e 79 146
e 79 150
e 80 81
e 80 82
e 80 83
e 80 97
e 80 101
e 80 106
e 80 111
e 80 112
e 80 113
e 80 114
e 80 125
e 80 131
e 80 132
e 80 134
e 80 137
e 80 138
e 80 139
e 80 142
e 80 143
e 80 145
e 80 146
e 80 148
e 80 149
e 81 86
e 81 95
e 81 100
e 81 108
e 81 111
e 81 113
e 81 120
e 81 123
e 81 129
e 81 130
e 81 134
e 81 136
e 81 139
e 81 145
e 81 146
e 82 85
e 82 86
e 82 87
e 82 89
e 82 91
e 82 93
e 82 94
e 82 97
e 82 99
e 82 104
e 82 105
e 82 109
e 82 111
e 82 112
e 82 115
e 82 118
e 82 120
e 82 124
e 82 125
e 82 127
e 82 128
e 82 134
e 82 136
e 82 143
e 83 85
e 83 86
e 83 88
e 83 90
e 83 91
e 83 93
e 83 95
e 83 96
e 83 103
e 83 104
e 83 111
e 83 113
e 83 116
e 83 120
e 83 124
e 83 129
e 83 132
e 83 133
e 83 135
e 83 141
e 83 142
e 83 143
e 83 144
e 83 145
e 83 148
e 83 149
e 84 88
e 84 92
e 84 96
e 84 98
e 84 102
e 84 105
e 84 110
e 84 112
e 84 115
e 84 123
e 84 131
e 84 133
e 84 136
e 84 139
e 84 146
e 85 87
e 85 91
e 85 92
e 85 94
e 85 95
e 85 97
e 85 101
e 85 102
e 85 104
e 85 105
e 85 108
e 85 116
e 85 118
e 85 121
e 85 122
e 85 125
e 85 129
e 85 131
e 85 137
e 85 142
e 85 144
e 85 147
e 86 87
e 86 89
e 86 101
e 86 102
e 86 103
e 86 105
e 86 107
e 86 113
e 86 114
e 86 119
e 86 120
e 86 121
e 86 124
e 86 127
e 86 129
e 86 136
e 86 137
e 86 138
e 86 143
e 86 146
e 86 148
e 86 149
e 87 89
e 87 100
e 87 105
e 87 107
e 87 110
e 87 120
e 87 121
e 87 122
e 87 125
e 87 131
e 87 132
e 87 138
e 87 140
e 87 141
e 87 142
e 87 143
e 87 146
e 87 150
e 88 92
e 88 93
e 88 96
e 88 100
e 88 103
e 88 112
e 88 115
e 88 119
e 88 121
e 88 122
e 88 126
e 88 127
e 88 133
e 88 142
e 88 143
e 88 148
e 88 149
e 89 91
e 89 93
e 89 99
e 89 102
e 89 105
e 89 106
e 89 107
e 89 110
e 89 111
e 89 116
e 89 119
e 89 120
e 89 121
e 89 125
e 89 126
e 89 127
e 89 129
e 89 134
e 89 135
e 89 137
e 89 140
e 89 142
e 89 144
e 89 146
e 90 92
e 90 96
e 90 103
e 90 106
e 90 107
e 90 114
e 90 115
e 90 121
e 90 122
e 90 126
e 90 131
e 90 132
e 90 139
e 90 140
e 90 145
e 90 146
e 90 147
e 91 95
e 91 100
e 91 102
e 91 107
e 91 111
e 91 115
e 91 116
e 91 119
e 91 126
e 91 129
e 91 130
e 91 131
e 91 132
e 91 133
e 91 139
e 91 140
e 91 141
e 91 144
e 91 149
e 92 93
e 92 95
e 92 101
e 92 103
e 92 104
e 92 105
e 92 107
e 92 110
e 92 114
e 92 120
e 92 129
e 92 135
e 92 144
e 92 146
e 92 147
e 93 94
e 93 95
e 93 97
e 93 101
e 93 107
e 93 108
e 93 118
e 93 119
e 93 123
e 93 126
e 93 132
e 93 136
e 93 139
e 93 140
e 93 145
e 93 147
e 93 148
e 94 95
e 94 96
e 94 98
e 94 103
e 94 104
e 94 109
e 94 110
e 94 111
e 94 113
e 94 116
e 94 117
e 94 120
e 94 124
e 94 125
e 94 128
e 94 129
e 94 131
e 94 135
e 94 140
e 94 144
e 94 148
e 95 99
e 95 100
e 95 102
e 95 106
e 95 108
e 95 111
e 95 112
e 95 117
e 95 122
e 95 127
e 95 136
e 95 137
e 95 140
e 95 141
e 95 143
e 95 144
e 95 147
e 95 149
e 96 99
e 96 100
e 96 102
e 96 105
e 96 107
e 96 110
e 96 113
e 96 121
e 96 124
e 96 125
e 96 126
e 96 127
e 96 131
e 96 136
e 96 137
e 96 139
e 96 142
e 96 144
e 96 145
e 96 146
e 97 98
e 97 99
e 97 109
e 97 115
e 97 116
e 97 122
e 97 126
e 97 129
e 97 133
e 97 137
e 97 142
e 97 145
e 97 146
e 97 147
e 97 148
e 98 100
e 98 107
e 98 109
e 98 110
e 98 112
e 98 115
e 98 116
e 98 117
e 98 120
e 98 121
e 98 126
e 98 128
e 98 129
e 98 137
e 98 145
e 99 101
e 99 103
e 99 113
e 99 118
e 99 119
e 99 120
e 99 125
e 99 131
e 99 135
e 99 138
e 99 140
e 99 146
e 99 148
e 100 101
e 100 106
e 100 116
e 100 117
e 100 124
e 100 129
e 100 138
e 100 140
e 100 141
e 100 144
e 100 145
e 100 146
e 100 147
e 100 148
e 101 102
e 101 105
e 101 109
e 101 117
e 101 119
e 101 120
e 101 121
e 101 130
e 101 132
e 101 134
e 101 140
e 101 144
e 101 146
e 102 103
e 102 106
e 102 115
e 102 120
e 102 127
e 102 137
e 102 142
e 102 144
e 102 146
e 102 150
e 103 108
e 103 118
e 103 119
e 103 120
e 103 123
e 103 126
e 103 128
e 103 135
e 103 141
e 103 142
e 103 147
e 103 149
e 103 150
e 104 113
e 104 116
e 104 124
e 104 125
e 104 126
e 104 128
e 104 133
e 104 136
e 104 138
e 104 148
e 105 107
e 105 111
e 105 112
e 105 115
e 105 121
e 105 122
e 105 123
e 105 128
e 105 130
e 105 131
e 105 134
e 105 136
e 105 139
e 105 140
e 105 143
e 105 146
e 105 149
e 106 112
e 106 113
e 106 114
e 106 115
e 106 118
e 106 120
e 106 125
e 106 126
e 106 133
e 106 134
e 106 139
e 106 142
e 106 143
e 106 146
e 106 147
e 106 150
e 107 110
e 107 117
e 107 118
e 107 120
e 107 124
e 107 130
e 107 131
e 107 135
e 107 140
e 107 142
e 107 149
e 108 109
e 108 114
e 108 116
e 108 122
e 108 123
e 108 125
e 108 129
e 108 133
e 108 134
e 108 142
e 108 143
e 108 145
e 108 148
e 109 110
e 109 111
e 109 112
e 109 117
e 109 120
e 109 122
e 109 124
e 109 130
e 109 136
e 109 137
e 109 145
e 109 147
e 110 111
e 110 113
e 110 115
e 110 116
e 110 120
e 110 127
e 110 128
e 110 133
e 110 138
e 111 114
e 111 115
e 111 117
e 111 124
e 111 126
e 111 134
e 111 135
e 111 136
e 111 137
e 111 138
e 111 143
e 111 145
e 111 149
e 112 113
e 112 114
e 112 119
e 112 120
e 112 131
e 112 135
e 112 136
e 112 138
e 112 141
e 112 149
e 113 116
e 113 119
e 113 123
e 113 126
e 113 133
e 113 135
e 113 138
e 113 139
e 113 140
e 113 141
e 113 143
e 113 145
e 114 117
e 114 123
e 114 128
e 114 129
e 114 130
e 114 143
e 115 119
e 115 120
e 115 121
e 115 123
e 115 124
e 115 128
e 115 131
e 115 132
e 115 136
e 115 138
e 115 139
e 115 143
e 115 145
e 115 149
e 115 150
e 116 117
e 116 124
e 116 126
e 116 127
e 116 128
e 116 131
e 116 136
e 116 139
e 116 142
e 116 145
e 116 147
e 116 150
e 117 119
e 117 120
e 117 123
e 117 125
e 117 129
e 117 131
e 117 133
e 117 136
e 117 137
e 117 145
e 117 146
e 118 119
e 118 123
e 118 124
e 118 128
e 118 129
e 118 131
e 118 133
e 118 134
e 118 137
e 118 139
e 118 144
e 118 145
e 118 146
e 118 147
e 119 125
e 119 130
e 119 132
e 119 133
e 119 136
e 119 139
e 119 140
e 119 145
e 119 149
e 120 123
e 120 126
e 120 135
e 120 137
e 120 142
e 120 144
e 120 145
e 120 147
e 120 148
e 120 150
e 121 122
e 121 124
e 121 127
e 121 131
e 121 132
e 121 135
e 121 136
e 121 138
e 121 139
e 121 140
e 121 144
e 121 145
e 121 147
e 121 149
e 122 127
e 122 130
e 122 137
e 122 138
e 122 139
e 122 145
e 122 148
e 122 150
e 123 126
e 123 127
e 123 130
e 123 141
e 123 144
e 123 146
e 124 125
e 124 128
e 124 131
e 124 137
e 124 138
e 124 143
e 124 144
e 124 145
e 124 147
e 125 131
e 125 133
e 125 136
e 125 140
e 125 142
e 125 148
e 125 149
e 126 129
e 126 130
e 126 134
e 126 135
e 126 138
e 126 146
e 126 150
e 127 132
e 127 133
e 127 140
e 127 146
e 127 147
e 128 130
e 128 131
e 128 132
e 128 146
e 129 134
e 129 137
e 129 138
e 129 140
e 129 142
e 129 143
e 129 145
e 130 132
e 130 133
e 130 135
e 130 138
e 130 139
e 130 144
e 130 146
e 130 148
e 131 134
e 131 138
e 131 142
e 131 146
e 131 149
e 131 150
e 132 134
e 132 136
e 132 140
e 132 141
e 132 145
e 132 150
e 133 135
e 133 143
e 133 146
e 134 138
e 134 140
e 134 149
e 134 150
e 135 137
e 135 138
e 135 141
e 135 143
e 136 138
e 136 142
e 136 148
e 136 150
e 137 138
e 137 141
e 137 142
e 137 144
e 138 141
e 138 143
e 138 144
e 138 146
e 138 148
e 139 140
e 139 144
e 139 146
e 139 150
e 140 141
e 140 144
e 141 144
e 141 150
e 142 144
e 142 145
e 142 146
e 142 147
e 143 150
e 144 145
e 144 147
e 144 148
e 144 150
e 145 147
e 145 149
e 146 147
e 146 149
